NAME /Users/henri/Research/solvers/instances/idol-instances/robust/collection/cbp_Subramanyam_et_al_2020/CapBud_N5_17/models/uncertain_technology_matrix/
ROWS
 N  OBJ
 L  capacity
 L  c_355
 L  c_356
 L  c_357
 L  c_358
 L  c_359
COLUMNS
    MARKER    'MARKER'                 'INTORG'
    x_0        OBJ        9.00102
    x_0        c_355      1
    x_0        capacity   1.8002
    x_1        OBJ        4.04307
    x_1        c_356      1
    x_1        capacity   0.808613
    x_2        OBJ        8.95345
    x_2        c_357      1
    x_2        capacity   1.79069
    x_3        OBJ        0.650825
    x_3        c_358      1
    x_3        capacity   0.130165
    x_4        OBJ        6.85477
    x_4        c_359      1
    x_4        capacity   1.37095
    y_0        OBJ        7.20082
    y_0        c_355      1
    y_0        capacity   1.8002
    y_1        OBJ        3.23445
    y_1        c_356      1
    y_1        capacity   0.808613
    y_2        OBJ        7.16276
    y_2        c_357      1
    y_2        capacity   1.79069
    y_3        OBJ        0.52066
    y_3        c_358      1
    y_3        capacity   0.130165
    y_4        OBJ        5.48382
    y_4        c_359      1
    y_4        capacity   1.37095
    MARKER    'MARKER'                 'INTEND'
RHS
    RHS       capacity   14.7516
    RHS       c_355      1
    RHS       c_356      1
    RHS       c_357      1
    RHS       c_358      1
    RHS       c_359      1
BOUNDS
 LI BND       x_0        0
 UI BND       x_0        1
 LI BND       x_1        0
 UI BND       x_1        1
 LI BND       x_2        0
 UI BND       x_2        1
 LI BND       x_3        0
 UI BND       x_3        1
 LI BND       x_4        0
 UI BND       x_4        1
 LI BND       y_0        0
 UI BND       y_0        1
 LI BND       y_1        0
 UI BND       y_1        1
 LI BND       y_2        0
 UI BND       y_2        1
 LI BND       y_3        0
 UI BND       y_3        1
 LI BND       y_4        0
 UI BND       y_4        1
ENDATA
